# LTA5A_crop
1.0000000000000000
   24.5549999999999997   0.0000000000000000   0.0000000000000000
   0.0000000000000008   12.2774999999999999   0.0000000000000000
   0.0000000000000015   0.0000000000000015   24.5549999999999997
O Si Al Na N H 
192 56 40 40 1 3 
Selective dynamics
Direct
 0.1136632050000000   0.9999592750999999   0.2466300140000000   F  F  F
 0.1445734070000000   0.9999592750999999   0.1459173280000000   F  F  F
 0.0000000000000000   0.7726735900000000   0.7533699860000000   F  F  F
 0.0000000000000000   0.7108531870000000   0.8540826720000000   F  F  F
 0.0537975970000000   0.8827122790000000   0.8284667070000000   F  F  F
 0.5000203620000001   0.2273671350000000   0.7533699860000000   F  F  F
 0.5000203620000001   0.2891875380000000   0.8540826720000000   F  F  F
 0.4462227650000000   0.1173284460000000   0.8284667070000000   F  F  F
 0.8863367950000000   0.0000407249000000   0.7533699860000000   F  F  F
 0.8554265930000000   0.0000407249000000   0.8540826720000000   F  F  F
 0.2533903480000000   0.9999592750999999   0.1136632050000000   F  F  F
 0.3541030339999999   0.9999592750999999   0.1445734070000000   F  F  F
 0.1715332930000000   0.8924048060000002   0.9413561390000000   F  F  F
 0.2533903480000000   0.0000407249000000   0.8863367950000000   F  F  F
 0.3541030340000000   0.0000407249000000   0.8554265930000000   F  F  F
 0.3284870700000000   0.1075544700000000   0.9413561390000000   F  F  F
 0.2533903480000000   0.7726735900000000   0.0000000000000000   F  F  F
 0.3541030340000000   0.7108531870000000   0.0000000000000000   F  F  F
 0.3284870700000000   0.8827122790000000   0.9462024029999999   F  F  F
 0.8863367950000000   0.5067399710000000   0.0000000000000000   F  F  F
 0.8554265930000000   0.7081653430000000   0.0000000000000000   F  F  F
 0.9413561390000000   0.6569334150000000   0.0537975970000000   F  F  F
 0.2466300140000000   0.7726735899999999   0.4999796379999999   F  F  F
 0.1459173280000000   0.7108531869999999   0.4999796379999999   F  F  F
 0.1715332930000000   0.8827122789999999   0.5537772350000000   F  F  F
 0.2533903480000000   0.2273671350000000   0.4999796379999999   F  F  F
 0.3541030339999999   0.2891875380000000   0.4999796379999999   F  F  F
 0.3284870699999999   0.1173284460000000   0.5537772350000000   F  F  F
 0.9462024029999999   0.8827122790000000   0.8284667070000000   F  F  F
 0.5586642230000000   0.8924048060000002   0.8284667070000000   F  F  F
 0.5537772350000001   0.1173284460000000   0.8284667070000000   F  F  F
 0.9413561390000000   0.1075544700000000   0.8284667070000000   F  F  F
 0.4413357770000000   0.8924048060000001   0.1715332930000000   F  F  F
 0.0586438610000000   0.1075544700000000   0.1715332930000000   F  F  F
 0.8284667069999999   0.8924048060000002   0.9413561390000000   F  F  F
 0.5000203620000001   0.5067399710000001   0.8863367950000000   F  F  F
 0.5000203620000001   0.7081653430000001   0.8554265930000000   F  F  F
 0.5537772350000000   0.6569334150000000   0.9413561390000000   F  F  F
 0.7466096519999998   0.0000407249000000   0.8863367950000000   F  F  F
 0.6458969660000001   0.0000407249000000   0.8554265930000000   F  F  F
 0.6715129299999999   0.1075544700000000   0.9413561390000000   F  F  F
 0.0000000000000000   0.4932193040000000   0.8863367950000000   F  F  F
 0.0000000000000000   0.2917939320000000   0.8554265930000000   F  F  F
 0.9462024029999998   0.3430258600000000   0.9413561390000000   F  F  F
 0.5000203620000000   0.5067399710000000   0.1136632050000000   F  F  F
 0.5000203620000000   0.7081653430000000   0.1445734070000000   F  F  F
 0.4462227650000000   0.6569334150000000   0.0586438610000000   F  F  F
 0.7466096519999998   0.9999592750999999   0.1136632050000000   F  F  F
 0.6458969660000000   0.9999592750999999   0.1445734070000000   F  F  F
 0.0000000000000000   0.4932193040000000   0.1136632050000000   F  F  F
 0.0000000000000000   0.2917939320000000   0.1445734070000000   F  F  F
 0.0537975970000000   0.3430258600000000   0.0586438610000000   F  F  F
 0.9413561389999999   0.6569334150000000   0.9462024029999999   F  F  F
 0.8863367950000000   0.4932193040000000   0.4999796379999999   F  F  F
 0.8554265930000000   0.2917939320000000   0.4999796379999999   F  F  F
 0.9413561390000000   0.3430258600000000   0.5537772350000000   F  F  F
 0.7533699860000000   0.7726735899999999   0.4999796379999999   F  F  F
 0.8540826720000000   0.7108531869999999   0.4999796379999999   F  F  F
 0.8284667070000000   0.8827122789999999   0.5537772350000000   F  F  F
 0.6136835680000000   0.5067399710000000   0.4999796379999999   F  F  F
 0.6445937690000000   0.7081653429999999   0.4999796379999999   F  F  F
 0.5586642230000000   0.6569334149999999   0.5537772350000000   F  F  F
 0.0000000000000000   0.2273671350000000   0.7466096519999998   F  F  F
 0.0000000000000000   0.2891875380000000   0.6458969660000000   F  F  F
 0.0537975970000000   0.1173284460000000   0.6715129300000000   F  F  F
 0.3863164320000000   0.0000407249000000   0.7466096519999998   F  F  F
 0.3554062310000001   0.0000407249000000   0.6458969660000000   F  F  F
 0.4413357770000000   0.1075544700000000   0.6715129300000000   F  F  F
 0.5000203620000001   0.7726735900000000   0.7466096519999998   F  F  F
 0.5000203620000001   0.7108531870000000   0.6458969660000000   F  F  F
 0.4462227650000000   0.8827122790000000   0.6715129300000000   F  F  F
 0.0586438610000000   0.8924048060000002   0.6715129300000000   F  F  F
 0.6136835680000000   0.9999592750999999   0.2533903480000000   F  F  F
 0.6445937690000000   0.9999592750999999   0.3541030340000000   F  F  F
 0.5586642230000000   0.1075544700000000   0.3284870700000000   F  F  F
 0.9413561390000000   0.8924048060000001   0.3284870700000000   F  F  F
 0.2466300140000000   0.0000407249000000   0.6136835680000000   F  F  F
 0.1459173280000000   0.0000407249000000   0.6445937690000000   F  F  F
 0.1715332930000000   0.1075544700000000   0.5586642230000000   F  F  F
 0.5000203620000001   0.4932193040000000   0.6136835680000000   F  F  F
 0.5000203620000001   0.2917939320000000   0.6445937690000000   F  F  F
 0.4462227650000000   0.3430258600000000   0.5586642230000000   F  F  F
 0.3284870699999999   0.8924048059999999   0.5586642230000000   F  F  F
 0.0000000000000000   0.5067399710000000   0.6136835680000000   F  F  F
 0.0000000000000000   0.7081653430000001   0.6445937690000000   F  F  F
 0.0537975970000000   0.6569334149999999   0.5586642230000000   F  F  F
 0.2466300140000000   0.9999592750999999   0.3863164320000000   F  F  F
 0.1459173280000000   0.9999592750999999   0.3554062310000000   F  F  F
 0.5000203620000000   0.4932193040000000   0.3863164320000000   F  F  F
 0.5000203620000000   0.2917939319999999   0.3554062310000000   F  F  F
 0.5537772350000000   0.3430258600000000   0.4413357770000000   F  F  F
 0.0000000000000000   0.5067399710000001   0.3863164320000000   F  F  F
 0.0000000000000000   0.7081653430000000   0.3554062310000000   F  F  F
 0.9462024029999999   0.6569334150000000   0.4413357770000000   F  F  F
 0.1136632050000000   0.4932193040000000   0.4999796379999999   F  F  F
 0.1445734070000000   0.2917939320000000   0.4999796379999999   F  F  F
 0.0586438610000000   0.3430258600000000   0.5537772350000000   F  F  F
 0.1136632050000000   0.5067399710000000   0.0000000000000000   F  F  F
 0.1445734070000000   0.7081653430000000   0.0000000000000000   F  F  F
 0.0586438610000000   0.6569334150000000   0.9462024029999999   F  F  F
 0.2466300140000000   0.2273671350000000   0.0000000000000000   F  F  F
 0.1459173280000000   0.2891875380000000   0.0000000000000000   F  F  F
 0.1715332930000000   0.1173284460000000   0.9462024029999999   F  F  F
 0.3863164320000000   0.4932193040000000   0.0000000000000000   F  F  F
 0.3554062310000000   0.2917939320000000   0.0000000000000000   F  F  F
 0.4413357770000000   0.3430258600000000   0.9462024029999999   F  F  F
 0.9462024029999999   0.1173284460000000   0.6715129300000000   F  F  F
 0.5537772350000001   0.8827122790000000   0.6715129300000000   F  F  F
 0.7533699860000000   0.9999592750999999   0.3863164320000000   F  F  F
 0.8540826720000000   0.9999592750999999   0.3554062310000000   F  F  F
 0.7533699860000000   0.0000407249000000   0.6136835680000000   F  F  F
 0.8540826720000000   0.0000407249000000   0.6445937690000000   F  F  F
 0.8284667070000000   0.1075544700000000   0.5586642230000000   F  F  F
 0.6715129300000000   0.8924048059999999   0.5586642230000000   F  F  F
 0.7466096519999998   0.2273671350000000   0.4999796379999999   F  F  F
 0.6458969660000000   0.2891875380000000   0.4999796379999999   F  F  F
 0.6715129300000000   0.1173284460000000   0.5537772350000000   F  F  F
 0.0586438610000000   0.3430258600000000   0.4462227650000000   F  F  F
 0.7533699860000000   0.2273671350000000   0.0000000000000000   F  F  F
 0.8540826720000000   0.2891875380000000   0.0000000000000000   F  F  F
 0.8284667069999999   0.1173284460000000   0.9462024029999999   F  F  F
 0.7466096519999998   0.7726735900000000   0.0000000000000000   F  F  F
 0.6458969660000000   0.7108531870000000   0.0000000000000000   F  F  F
 0.6715129299999999   0.8827122790000000   0.9462024029999999   F  F  F
 0.6136835680000001   0.0000407249000000   0.7466096519999998   F  F  F
 0.6445937690000000   0.0000407249000000   0.6458969660000000   F  F  F
 0.5000203620000000   0.7726735900000000   0.2533903480000000   F  F  F
 0.5000203620000000   0.7108531870000000   0.3541030340000000   F  F  F
 0.5537772350000000   0.8827122790000000   0.3284870700000000   F  F  F
 0.0000000000000000   0.2273671350000000   0.2533903480000000   F  F  F
 0.0000000000000000   0.2891875380000000   0.3541030340000000   F  F  F
 0.9462024029999999   0.1173284460000000   0.3284870700000000   F  F  F
 0.3863164319999999   0.9999592750999999   0.2533903480000000   F  F  F
 0.3554062310000000   0.9999592750999999   0.3541030340000000   F  F  F
 0.6715129300000000   0.8924048060000001   0.4413357770000000   F  F  F
 0.8284667070000000   0.1075544700000000   0.4413357770000000   F  F  F
 0.8284667070000000   0.8827122790000000   0.4462227650000000   F  F  F
 0.3863164319999999   0.5067399710000000   0.4999796379999999   F  F  F
 0.3554062310000000   0.7081653429999999   0.4999796379999999   F  F  F
 0.4413357769999999   0.6569334149999999   0.5537772350000000   F  F  F
 0.6715129300000000   0.8827122790000000   0.0537975970000000   F  F  F
 0.8284667070000000   0.1173284460000000   0.0537975970000000   F  F  F
 0.4462227650000000   0.8827122790000000   0.3284870700000000   F  F  F
 0.0586438610000000   0.8924048060000001   0.3284870700000000   F  F  F
 0.0537975970000000   0.1173284460000000   0.3284870700000000   F  F  F
 0.4413357770000000   0.1075544700000000   0.3284870700000000   F  F  F
 0.9413561390000000   0.8924048060000002   0.6715129300000000   F  F  F
 0.5586642230000000   0.1075544700000000   0.6715129300000000   F  F  F
 0.3284870700000000   0.8924048060000001   0.4413357770000000   F  F  F
 0.0537975970000000   0.6569334150000000   0.4413357770000000   F  F  F
 0.1715332930000000   0.1075544700000000   0.4413357770000000   F  F  F
 0.4462227650000000   0.3430258600000000   0.4413357770000000   F  F  F
 0.9462024029999999   0.6569334149999999   0.5586642230000000   F  F  F
 0.5537772350000000   0.3430258600000000   0.5586642230000000   F  F  F
 0.4413357770000000   0.6569334150000000   0.4462227650000000   F  F  F
 0.4413357770000000   0.3430258600000000   0.0537975970000000   F  F  F
 0.3284870700000000   0.8827122790000000   0.0537975970000000   F  F  F
 0.0586438610000000   0.6569334150000000   0.0537975970000000   F  F  F
 0.5000203620000000   0.2273671350000000   0.2466300140000000   F  F  F
 0.5000203620000000   0.2891875380000000   0.1459173280000000   F  F  F
 0.5537772350000000   0.1173284460000000   0.1715332930000000   F  F  F
 0.8863367950000000   0.9999592750999999   0.2466300140000000   F  F  F
 0.8554265930000000   0.9999592750999999   0.1459173280000000   F  F  F
 0.9413561390000000   0.1075544700000000   0.1715332930000000   F  F  F
 0.0000000000000000   0.7726735900000000   0.2466300140000000   F  F  F
 0.0000000000000000   0.7108531870000000   0.1459173280000000   F  F  F
 0.9462024029999999   0.8827122790000000   0.1715332930000000   F  F  F
 0.5586642230000000   0.8924048060000001   0.1715332930000000   F  F  F
 0.1136632050000000   0.0000407249000000   0.7533699860000000   F  F  F
 0.1445734070000000   0.0000407249000000   0.8540826720000000   F  F  F
 0.0586438610000000   0.1075544700000000   0.8284667070000000   F  F  F
 0.4413357770000000   0.8924048060000002   0.8284667070000000   F  F  F
 0.6715129300000000   0.1075544700000000   0.0586438610000000   F  F  F
 0.9462024029999999   0.3430258600000000   0.0586438610000000   F  F  F
 0.8284667070000000   0.8924048060000001   0.0586438610000000   F  F  F
 0.5537772350000000   0.6569334150000000   0.0586438610000000   F  F  F
 0.0537975970000000   0.3430258600000000   0.9413561390000000   F  F  F
 0.4462227650000000   0.6569334150000000   0.9413561390000000   F  F  F
 0.6136835680000000   0.4932193040000000   0.0000000000000000   F  F  F
 0.6445937690000000   0.2917939320000000   0.0000000000000000   F  F  F
 0.5586642230000000   0.3430258600000000   0.0537975970000000   F  F  F
 0.5586642230000000   0.6569334150000000   0.4462227650000000   F  F  F
 0.6715129300000000   0.1173284460000000   0.4462227650000000   F  F  F
 0.9413561390000000   0.3430258600000000   0.4462227650000000   F  F  F
 0.4462227650000000   0.1173284460000000   0.1715332930000000   F  F  F
 0.0537975970000000   0.8827122790000000   0.1715332930000000   F  F  F
 0.3284870700000000   0.1075544700000000   0.0586438610000000   F  F  F
 0.1715332930000000   0.8924048060000001   0.0586438610000000   F  F  F
 0.1715332930000000   0.1173284460000000   0.0537975970000000   F  F  F
 0.5586642229999998   0.3430258600000000   0.9462024029999999   F  F  F
 0.3284870700000000   0.1173284460000000   0.4462227650000000   F  F  F
 0.1715332930000000   0.8827122790000000   0.4462227650000000   F  F  F
 0.0931785790000000   0.9999592750999999   0.1849725110000000   F  F  F
 0.0000000000000000   0.8136428430000000   0.8150274890000000   F  F  F
 0.5000203620000001   0.1863164320000000   0.8150274890000000   F  F  F
 0.9068214210000000   0.0000407249000000   0.8150274890000000   F  F  F
 0.3150071270000000   0.9999592750999999   0.0931785790000000   F  F  F
 0.3150071270000000   0.0000407249000000   0.9068214210000000   F  F  F
 0.3150071270000001   0.8136428430000000   0.0000000000000000   F  F  F
 0.9068214210000000   0.6300549790000000   0.0000000000000000   F  F  F
 0.8128690690000000   0.8191814290000000   0.0000000000000000   F  F  F
 0.1849725110000000   0.8136428429999999   0.4999796379999999   F  F  F
 0.3150071270000000   0.1863164320000000   0.4999796379999999   F  F  F
 0.5000203620000000   0.6300549790000001   0.9068214210000000   F  F  F
 0.5000203620000001   0.8191814290000000   0.8128690690000000   F  F  F
 0.6849928729999999   0.0000407249000000   0.9068214210000000   F  F  F
 0.0000000000000000   0.3699857460000000   0.9068214210000000   F  F  F
 0.5000203620000000   0.6300549790000000   0.0931785790000000   F  F  F
 0.5000203620000000   0.8191814290000000   0.1871309310000000   F  F  F
 0.6849928730000000   0.9999592750999999   0.0931785790000000   F  F  F
 0.0000000000000000   0.3699857460000000   0.0931785790000000   F  F  F
 0.9068214210000000   0.3699857460000000   0.4999796379999999   F  F  F
 0.8150274890000000   0.8136428429999999   0.4999796379999999   F  F  F
 0.5931582160000000   0.6300549790000000   0.4999796379999999   F  F  F
 0.6871512930000000   0.8191814289999999   0.4999796379999999   F  F  F
 0.0000000000000000   0.1863164320000000   0.6849928730000000   F  F  F
 0.4068417840000000   0.0000407249000000   0.6849928730000000   F  F  F
 0.5000203620000001   0.8136428430000000   0.6849928730000000   F  F  F
 0.5931582160000000   0.9999592750999999   0.3150071270000000   F  F  F
 0.1849725110000000   0.0000407249000000   0.5931582160000000   F  F  F
 0.5000203620000001   0.3699857460000000   0.5931582160000000   F  F  F
 0.0000000000000000   0.6300549790000000   0.5931582160000000   F  F  F
 0.0000000000000000   0.8191814290000000   0.6871512930000000   F  F  F
 0.1849725110000000   0.9999592750999999   0.4068417840000000   F  F  F
 0.5000203620000000   0.3699857460000000   0.4068417840000000   F  F  F
 0.0000000000000000   0.6300549790000001   0.4068417840000000   F  F  F
 0.0000000000000000   0.8191814290000000   0.3128487070000000   F  F  F
 0.0931785790000000   0.3699857460000000   0.4999796379999999   F  F  F
 0.0931785790000000   0.6300549790000000   0.0000000000000000   F  F  F
 0.1871309310000000   0.8191814290000000   0.0000000000000000   F  F  F
 0.1849725110000000   0.1863164320000000   0.0000000000000000   F  F  F
 0.4068417840000000   0.3699857460000000   0.0000000000000000   F  F  F
 0.8150274890000000   0.9999592750999999   0.4068417840000000   F  F  F
 0.8150274890000000   0.0000407249000000   0.5931582160000000   F  F  F
 0.6849928730000000   0.1863164320000000   0.4999796379999999   F  F  F
 0.8150274890000000   0.1863164320000000   0.0000000000000000   F  F  F
 0.6849928730000000   0.8136428430000000   0.0000000000000000   F  F  F
 0.5931582160000001   0.0000407249000000   0.6849928730000000   F  F  F
 0.5000203620000000   0.8136428430000000   0.3150071270000000   F  F  F
 0.0000000000000000   0.1863164320000000   0.3150071270000000   F  F  F
 0.4068417839999999   0.9999592750999999   0.3150071270000000   F  F  F
 0.4068417839999999   0.6300549790000000   0.4999796379999999   F  F  F
 0.3128487070000000   0.8191814289999999   0.4999796379999999   F  F  F
 0.5000203620000000   0.1863164320000000   0.1849725110000000   F  F  F
 0.9068214210000000   0.9999592750999999   0.1849725110000000   F  F  F
 0.0000000000000000   0.8136428430000000   0.1849725110000000   F  F  F
 0.0931785790000000   0.0000407249000000   0.8150274890000000   F  F  F
 0.5931582160000000   0.3699857460000000   0.0000000000000000   F  F  F
 0.1871309310000000   0.9999592750999999   0.0904092850000000   F  F  F
 0.0000000000000000   0.6257381390000000   0.9095907149999999   F  F  F
 0.5000203620000000   0.3743025860000000   0.9095907149999999   F  F  F
 0.8128690689999999   0.0000407249000000   0.9095907149999999   F  F  F
 0.4095703519999999   0.9999592750999999   0.1871309310000000   F  F  F
 0.4095703520000000   0.0000407249000000   0.8128690690000000   F  F  F
 0.4095703520000000   0.6257381390000000   0.0000000000000000   F  F  F
 0.0904092850000000   0.6257381390000000   0.4999796379999999   F  F  F
 0.4095703519999999   0.3743025860000000   0.4999796379999999   F  F  F
 0.5904296480000001   0.0000407249000000   0.8128690690000000   F  F  F
 0.0000000000000000   0.1808592950000000   0.8128690690000000   F  F  F
 0.5904296480000000   0.9999592750999999   0.1871309310000000   F  F  F
 0.0000000000000000   0.1808592950000000   0.1871309310000000   F  F  F
 0.8128690690000000   0.1808592950000000   0.4999796379999999   F  F  F
 0.9095907149999999   0.6257381390000000   0.4999796379999999   F  F  F
 0.0000000000000000   0.3743025860000000   0.5904296480000000   F  F  F
 0.3128487069999999   0.9999592750999998   0.5904296480000000   F  F  F
 0.5000203620000000   0.6257381390000000   0.5904296480000000   F  F  F
 0.6871512930000000   0.9999592750999999   0.4095703520000000   F  F  F
 0.0904092850000000   0.0000407249000000   0.6871512930000000   F  F  F
 0.5000203620000001   0.1808592950000000   0.6871512930000000   F  F  F
 0.0904092850000000   0.9999592750999999   0.3128487070000000   F  F  F
 0.4999796379999999   0.1808592950000000   0.3128487070000000   F  F  F
 0.1871309310000000   0.1808592950000000   0.4999796379999999   F  F  F
 0.0904092850000000   0.3743025860000000   0.0000000000000000   F  F  F
 0.3128487070000000   0.1808592950000000   0.0000000000000000   F  F  F
 0.9095907149999999   0.9999592750999999   0.3128487070000000   F  F  F
 0.9095907149999999   0.0000407249000000   0.6871512930000000   F  F  F
 0.5904296480000000   0.3743025860000000   0.4999796379999999   F  F  F
 0.9095907149999999   0.3743025860000000   0.0000000000000000   F  F  F
 0.5904296480000000   0.6257381390000000   0.0000000000000000   F  F  F
 0.6871512930000000   0.9999592750999998   0.5904296480000000   F  F  F
 0.5000203620000000   0.6257381390000001   0.4095703520000000   F  F  F
 0.0000000000000000   0.3743025860000000   0.4095703520000000   F  F  F
 0.3128487070000000   0.9999592750999999   0.4095703520000000   F  F  F
 0.5000203620000000   0.3743025860000000   0.0904092850000000   F  F  F
 0.8128690690000000   0.9999592750999999   0.0904092850000000   F  F  F
 0.0000000000000000   0.6257381390000000   0.0904092850000000   F  F  F
 0.1871309310000000   0.0000407249000000   0.9095907149999999   F  F  F
 0.6871512930000000   0.1808592950000000   0.0000000000000000   F  F  F
 0.6104255752392589   0.2251272653227448   0.8972917939319894   T  T  T
 0.1082875178171452   0.7944614131541438   0.3923437181836693   T  T  T
 0.2933822032172673   0.4215027489309713   0.9897373243738546   T  T  T
 0.4025249440032580   0.8002443494196700   0.9034412543270209   T  T  T
 0.5949908368967624   0.2008552229688454   0.5962125839951130   T  T  T
 0.8935451028303807   0.7998371003868865   0.4057014864589695   T  T  T
 0.9969456322541235   0.4287517817145184   0.7866829566279779   T  T  T
 0.5977194054164121   0.2174709835064141   0.4004072490327835   T  T  T
 0.3931989411525147   0.2270006108735491   0.4007330482590103   T  T  T
 0.7141519038892283   0.0168601099572388   0.2061087354917532   T  T  T
 0.6043982895540623   0.7929138668295662   0.6020362451639176   T  T  T
 0.4098147016900835   0.2105477499490938   0.8944003257992262   T  T  T
 0.8927306047648137   0.8098554265933617   0.1078802687843615   T  T  T
 0.9044593769089798   0.2043575646507839   0.0984320912237833   T  T  T
 0.4068417837507636   0.2043575646507839   0.1055996742007737   T  T  T
 0.0985542659336184   0.2098147016900835   0.6061087354917531   T  T  T
 0.2885359397271431   0.9972714314803502   0.7080431683974749   T  T  T
 0.3948686621869273   0.8013846467114641   0.0976990429647729   T  T  T
 0.2928527794746487   0.9907554469558134   0.2846263490124210   T  T  T
 0.5952351863164325   0.2068825086540419   0.0948075748320097   T  T  T
 0.3931989411525147   0.7736917124821829   0.6074933822032171   T  T  T
 0.1007126858073712   0.1921400936672776   0.4090409285277948   T  T  T
 0.5956017104459377   0.7754836082264305   0.1093463653023823   T  T  T
 0.3974750559967420   0.7892486255345144   0.3990633272245978   T  T  T
 0.6080635308491142   0.7899816737935247   0.9014050091631032   T  T  T
 0.8989615149664020   0.2130726939523518   0.5929545917328446   T  T  T
 0.1042964772958664   0.7907961718590918   0.1035227041335776   T  T  T
 0.6930971288943188   0.0310323762981062   0.7817145184280188   T  T  T
 0.7111382610466300   0.4206882508654041   0.5008348605172062   T  T  T
 0.4019955202606394   0.1862757075951944   0.5980452046426390   T  T  T
 0.1010384850335980   0.8105884748523722   0.8970067196090408   T  T  T
 0.1134188556302179   0.2261046630014253   0.9009977601303196   T  T  T
 0.9029932803909591   0.1936876399918550   0.4043982895540623   T  T  T
 0.0943188759926695   0.1919771940541641   0.1016086336794950   T  T  T
 0.9058440236204438   0.1891264508246792   0.9091834656892689   T  T  T
 0.8972103441254327   0.7989411525147626   0.9042964772958663   T  T  T
 0.8928527794746487   0.7913663205049887   0.6057014864589695   T  T  T
 0.5935654652820199   0.8168601099572389   0.4014660965180207   T  T  T
 0.0130319690490735   0.4480553858684586   0.2847077988189777   T  T  T
 0.1020973325188353   0.7858277336591325   0.5955202606393809   T  T  T
 0.2036245163917736   1.0000000000000000   1.0000000000000000   T  T  T
 0.2448544084707799   1.0000000000000000   1.0000000000000000   T  T  T
 0.1917904703726329   0.0789900223986968   1.0000000000000000   T  T  T
 0.1917898594990837   0.9682019955202606   0.9638485033598045   T  T  T
